p cnf 231 627
c t mc
-1 2 -3 0
1 -2 -3 0
-1 -2 3 0
1 2 3 0
-6 4 0
-6 5 0
-4 -5 6 0
6 -7 -8 0
-6 7 -8 0
6 7 8 0
-6 -7 8 0
3 8 -9 0
-3 -8 -9 0
3 -8 9 0
-3 8 9 0
-12 -10 0
-12 -11 0
10 11 12 0
-15 -13 0
-15 14 0
13 -14 15 0
17 15 0
17 -16 0
-15 16 -17 0
15 -17 -18 0
-15 17 -18 0
15 17 18 0
-15 -17 18 0
-18 -19 -20 0
18 19 -20 0
-18 19 20 0
18 -19 20 0
12 20 -21 0
-12 -20 -21 0
12 -20 21 0
-12 20 21 0
-9 21 -22 0
9 -21 -22 0
-9 -21 22 0
9 21 22 0
25 7 0
25 -24 0
-7 24 -25 0
-26 23 0
-26 -25 0
-23 25 26 0
-27 -7 0
-27 19 0
7 -19 27 0
-29 27 0
-29 28 0
-27 -28 29 0
31 -29 0
31 30 0
29 -30 -31 0
-26 31 -32 0
26 -31 -32 0
-26 -31 32 0
26 31 32 0
33 32 0
33 3 0
-32 -3 -33 0
-34 20 0
-34 -33 0
-20 33 34 0
-35 -6 0
-35 -26 0
6 26 35 0
36 37 -38 0
-36 -37 -38 0
36 -37 38 0
-36 37 38 0
-40 -38 0
-40 -39 0
38 39 40 0
43 41 0
43 -42 0
-41 42 -43 0
-44 -40 0
-44 43 0
40 -43 44 0
45 35 0
45 -44 0
-35 44 -45 0
18 -45 -46 0
-18 45 -46 0
18 45 46 0
-18 -45 46 0
34 46 -47 0
-34 -46 -47 0
34 -46 47 0
-34 46 47 0
-48 22 0
-48 -47 0
-22 47 48 0
49 36 0
49 -24 0
-36 24 -49 0
-50 -49 0
-50 -36 0
49 36 50 0
-51 52 0
51 52 0
53 25 0
53 52 0
-25 -52 -53 0
-54 50 0
-54 53 0
-50 -53 54 0
56 42 0
56 55 0
-42 -55 -56 0
-24 -56 -57 0
24 56 -57 0
-24 56 57 0
24 -56 57 0
-58 54 0
-58 -57 0
-54 57 58 0
-60 -59 0
-60 -6 0
59 6 60 0
-60 -61 -62 0
60 61 -62 0
-60 61 62 0
60 -61 62 0
62 -63 -64 0
-62 63 -64 0
62 63 64 0
-62 -63 64 0
-30 2 -65 0
30 -2 -65 0
-30 -2 65 0
30 2 65 0
-66 -64 0
-66 -65 0
64 65 66 0
68 -67 0
68 -57 0
67 57 -68 0
-66 68 -69 0
66 -68 -69 0
-66 -68 69 0
66 68 69 0
-70 66 0
-70 2 0
-66 -2 70 0
71 -69 0
71 -70 0
69 70 -71 0
58 -71 -72 0
-58 71 -72 0
58 71 72 0
-58 -71 72 0
62 -63 -73 0
-62 63 -73 0
62 63 73 0
-62 -63 73 0
-64 73 -74 0
64 -73 -74 0
-64 -73 74 0
64 73 74 0
-75 67 -76 0
75 -67 -76 0
-75 -67 76 0
75 67 76 0
-77 74 0
-77 76 0
-74 -76 77 0
78 77 0
78 4 0
-77 -4 -78 0
-72 -78 -79 0
72 78 -79 0
-72 78 79 0
72 -78 79 0
82 80 0
82 -81 0
-80 81 -82 0
79 82 -83 0
-79 -82 -83 0
79 -82 83 0
-79 82 83 0
-84 48 0
-84 83 0
-48 -83 84 0
85 -51 0
85 -42 0
51 42 -85 0
-87 51 0
-87 86 0
-51 -86 87 0
-88 -85 0
-88 -87 0
85 87 88 0
-89 -24 0
-89 42 0
24 -42 89 0
-90 -88 0
-90 89 0
88 -89 90 0
91 75 0
91 61 0
-75 -61 -91 0
-90 91 -92 0
90 -91 -92 0
-90 -91 92 0
90 91 92 0
93 84 0
93 -92 0
-84 92 -93 0
-94 -24 0
-94 -19 0
24 19 94 0
95 34 -96 0
-95 -34 -96 0
95 -34 96 0
-95 34 96 0
97 -38 0
97 -66 0
38 66 -97 0
97 -73 -98 0
-97 73 -98 0
97 73 98 0
-97 -73 98 0
-99 -46 0
-99 98 0
46 -98 99 0
100 67 0
100 -67 0
-101 40 0
-101 -100 0
-40 100 101 0
-102 -5 0
-102 -101 0
5 101 102 0
-103 -32 0
-103 102 0
32 -102 103 0
-105 -104 0
-105 -65 0
104 65 105 0
104 107 -108 0
-104 -107 -108 0
104 -107 108 0
-104 107 108 0
-109 -106 0
-109 108 0
106 -108 109 0
110 105 0
110 -109 0
-105 109 -110 0
-111 -103 0
-111 -110 0
103 110 111 0
-99 111 -112 0
99 -111 -112 0
-99 -111 112 0
99 111 112 0
-113 -96 0
-113 112 0
96 -112 113 0
-114 -27 0
-114 80 0
27 -80 114 0
-115 -67 0
-115 -114 0
67 114 115 0
-116 16 0
-116 -115 0
-16 115 116 0
117 86 0
117 -2 0
-86 2 -117 0
118 77 0
118 -35 0
-77 35 -118 0
119 -117 0
119 -118 0
117 118 -119 0
116 119 -120 0
-116 -119 -120 0
116 -119 120 0
-116 119 120 0
-121 35 0
-121 29 0
-35 -29 121 0
-122 -4 0
-122 80 0
4 -80 122 0
-75 42 -123 0
75 -42 -123 0
-75 -42 123 0
75 42 123 0
-124 122 0
-124 123 0
-122 -123 124 0
125 -115 0
125 1 0
115 -1 -125 0
-126 -23 0
-126 52 0
23 -52 126 0
127 15 0
127 -19 0
-15 19 -127 0
128 28 0
128 127 0
-28 -127 -128 0
129 -126 0
129 128 0
126 -128 -129 0
-133 -131 0
-133 132 0
131 -132 133 0
-134 130 0
-134 -133 0
-130 133 134 0
-135 129 0
-135 -134 0
-129 134 135 0
136 125 0
136 135 0
-125 -135 -136 0
-137 124 0
-137 136 0
-124 -136 137 0
-138 121 0
-138 -137 0
-121 137 138 0
139 120 0
139 -138 0
-120 138 -139 0
-140 113 0
-140 -139 0
-113 139 140 0
-94 140 -141 0
94 -140 -141 0
-94 -140 141 0
94 140 141 0
142 -93 0
142 141 0
93 -141 -142 0
-32 11 -143 0
32 -11 -143 0
-32 -11 143 0
32 11 143 0
144 -107 0
144 -51 0
107 51 -144 0
145 -50 0
145 144 0
50 -144 -145 0
-145 -146 0
145 -146 0
-148 147 0
-148 -50 0
-147 50 148 0
-146 148 -149 0
146 -148 -149 0
-146 -148 149 0
146 148 149 0
150 -143 0
150 -149 0
143 149 -150 0
-151 20 0
-151 -56 0
-20 56 151 0
-152 37 0
-152 -7 0
-37 7 152 0
15 -41 -153 0
-15 41 -153 0
15 41 153 0
-15 -41 153 0
-154 -153 0
-154 -41 0
153 41 154 0
-38 -154 -155 0
38 154 -155 0
-38 154 155 0
38 -154 155 0
-107 61 -156 0
107 -61 -156 0
-107 -61 156 0
107 61 156 0
-157 -155 0
-157 -156 0
155 156 157 0
158 152 0
158 -157 0
-152 157 -158 0
159 151 0
159 158 0
-151 -158 -159 0
-160 -150 0
-160 -159 0
150 159 160 0
161 39 0
161 45 0
-39 -45 -161 0
162 -44 0
162 -59 0
44 59 -162 0
163 10 0
163 114 0
-10 -114 -163 0
-164 147 0
-164 -163 0
-147 163 164 0
-165 -164 0
-165 2 0
164 -2 165 0
166 -162 0
166 -165 0
162 165 -166 0
-168 167 0
-168 -7 0
-167 7 168 0
-169 -166 0
-169 168 0
166 -168 169 0
36 -38 -170 0
-36 38 -170 0
36 38 170 0
-36 -38 170 0
-171 30 0
-171 -170 0
-30 170 171 0
-169 171 -172 0
169 -171 -172 0
-169 -171 172 0
169 171 172 0
-173 161 0
-173 172 0
-161 -172 173 0
174 -55 0
174 -51 0
55 51 -174 0
6 -63 -175 0
-6 63 -175 0
6 63 175 0
-6 -63 175 0
176 -4 0
176 -26 0
4 26 -176 0
-175 176 -177 0
175 -176 -177 0
-175 -176 177 0
175 176 177 0
-178 -131 0
-178 -177 0
131 177 178 0
-42 -7 -179 0
42 7 -179 0
-42 7 179 0
42 -7 179 0
180 57 0
180 179 0
-57 -179 -180 0
181 178 0
181 -180 0
-178 180 -181 0
-183 104 0
-183 -182 0
-104 182 183 0
184 -131 0
184 -183 0
131 183 -184 0
-181 184 -185 0
181 -184 -185 0
-181 -184 185 0
181 184 185 0
186 -100 0
186 29 0
100 -29 -186 0
-107 186 -187 0
107 -186 -187 0
-107 -186 187 0
107 186 187 0
185 -187 -188 0
-185 187 -188 0
185 187 188 0
-185 -187 188 0
-189 183 0
-189 59 0
-183 -59 189 0
-190 -95 0
-190 55 0
95 -55 190 0
189 190 -191 0
-189 -190 -191 0
189 -190 191 0
-189 190 191 0
60 25 -192 0
-60 -25 -192 0
60 -25 192 0
-60 25 192 0
193 8 0
193 -192 0
-8 192 -193 0
-194 -191 0
-194 -193 0
191 193 194 0
195 -188 0
195 -194 0
188 194 -195 0
196 -174 0
196 -195 0
174 195 -196 0
197 -23 0
197 -63 0
23 63 -197 0
198 197 0
198 -59 0
-197 59 -198 0
-199 -196 0
-199 -198 0
196 198 199 0
173 199 -200 0
-173 -199 -200 0
173 -199 200 0
-173 199 200 0
-160 -200 -201 0
160 200 -201 0
-160 200 201 0
160 -200 201 0
-202 142 0
-202 201 0
-142 -201 202 0
203 -16 0
203 -61 0
16 61 -203 0
-204 59 0
-204 -76 0
-59 76 204 0
-204 -175 -205 0
204 175 -205 0
-204 175 205 0
204 -175 205 0
-67 18 -206 0
67 -18 -206 0
-67 -18 206 0
67 18 206 0
207 -206 0
207 -4 0
206 4 -207 0
-208 50 0
-208 207 0
-50 -207 208 0
-209 -36 0
-209 -127 0
36 127 209 0
-210 208 0
-210 209 0
-208 -209 210 0
211 205 0
211 -210 0
-205 210 -211 0
-212 -203 0
-212 -211 0
203 211 212 0
183 -16 -213 0
-183 16 -213 0
183 16 213 0
-183 -16 213 0
214 12 0
214 213 0
-12 -213 -214 0
215 -1 0
215 -13 0
1 13 -215 0
-216 214 0
-216 215 0
-214 -215 216 0
-217 -75 0
-217 41 0
75 -41 217 0
218 -216 0
218 217 0
216 -217 -218 0
212 218 -219 0
-212 -218 -219 0
212 -218 219 0
-212 218 219 0
220 -128 0
220 45 0
128 -45 -220 0
219 220 -221 0
-219 -220 -221 0
219 -220 221 0
-219 220 221 0
-222 55 0
-222 -186 0
-55 186 222 0
223 -222 0
223 115 0
222 -115 -223 0
221 223 -224 0
-221 -223 -224 0
221 -223 224 0
-221 223 224 0
225 -28 0
225 80 0
28 -80 -225 0
226 214 0
226 -46 0
-214 46 -226 0
227 225 0
227 226 0
-225 -226 -227 0
107 59 -228 0
-107 -59 -228 0
107 -59 228 0
-107 59 228 0
227 -228 -229 0
-227 228 -229 0
227 228 229 0
-227 -228 229 0
-224 -229 -230 0
224 229 -230 0
-224 229 230 0
224 -229 230 0
231 202 0
231 230 0
-202 -230 -231 0
231 0
